; SMT-LIBv2 configurations
(set-logic QF_NRA)
(set-option :produce-models true)
(set-option :produce-unsat-cores true)

; SMT-LIBv2 file generated for cvc5 with multi-layer configuration
; Number of features (input neurons): 11
; Number of layers: 0
; Number of samples: 72

(declare-fun w1 () Real) ; Feature 'no_of_dependents'
(assert (or (and (>= w1 (- 100)) (<= w1 (- 0.1))) (and (>= w1 0.1) (<= w1 100))))
(declare-fun w2 () Real) ; Feature 'education'
(assert (or (and (>= w2 (- 100)) (<= w2 (- 0.1))) (and (>= w2 0.1) (<= w2 100))))
(declare-fun w3 () Real) ; Feature 'self_employed'
(assert (or (and (>= w3 (- 100)) (<= w3 (- 0.1))) (and (>= w3 0.1) (<= w3 100))))
(declare-fun w4 () Real) ; Feature 'income_annum'
(assert (or (and (>= w4 (- 100)) (<= w4 (- 0.1))) (and (>= w4 0.1) (<= w4 100))))
(declare-fun w5 () Real) ; Feature 'loan_amount'
(assert (or (and (>= w5 (- 100)) (<= w5 (- 0.1))) (and (>= w5 0.1) (<= w5 100))))
(declare-fun w6 () Real) ; Feature 'loan_term'
(assert (or (and (>= w6 (- 100)) (<= w6 (- 0.1))) (and (>= w6 0.1) (<= w6 100))))
(declare-fun w7 () Real) ; Feature 'cibil_score'
(assert (or (and (>= w7 (- 100)) (<= w7 (- 0.1))) (and (>= w7 0.1) (<= w7 100))))
(declare-fun w8 () Real) ; Feature 'residential_assets_value'
(assert (or (and (>= w8 (- 100)) (<= w8 (- 0.1))) (and (>= w8 0.1) (<= w8 100))))
(declare-fun w9 () Real) ; Feature 'commercial_assets_value'
(assert (or (and (>= w9 (- 100)) (<= w9 (- 0.1))) (and (>= w9 0.1) (<= w9 100))))
(declare-fun w10 () Real) ; Feature 'luxury_assets_value'
(assert (or (and (>= w10 (- 100)) (<= w10 (- 0.1))) (and (>= w10 0.1) (<= w10 100))))
(declare-fun w11 () Real) ; Feature 'bank_asset_value'
(assert (or (and (>= w11 (- 100)) (<= w11 (- 0.1))) (and (>= w11 0.1) (<= w11 100))))
(declare-fun b () Real) ; Bias for output node
(assert (or (and (>= b (- 100)) (<= b (- 0.1))) (and (>= b 0.1) (<= b 100))))
(declare-fun slack_1 () Real)
(assert (>= slack_1 0.0))
(assert (< (- (+ b (* w1 1.0) (* w2 1.0) (* w3 0.0) (* w4 0.793814432989691) (* w5 0.755102040816326) (* w6 0.222222222222222) (* w7 0.446666666666667) (* w8 0.202054794520548) (* w9 0.716494845360825) (* w10 0.401028277634961) (* w11 0.591836734693878)) slack_1) (- 0.001))) ; Constraint for sample 1 (Label: 0)
(declare-fun slack_2 () Real)
(assert (>= slack_2 0.0))
(assert (< (- (+ b (* w1 0.0) (* w2 1.0) (* w3 1.0) (* w4 0.969072164948453) (* w5 0.85969387755102) (* w6 0.555555555555556) (* w7 0.683333333333333) (* w8 0.818493150684932) (* w9 0.530927835051546) (* w10 0.97172236503856) (* w11 0.530612244897959)) slack_2) (- 0.001))) ; Constraint for sample 2 (Label: 0)
(declare-fun slack_3 () Real)
(assert (>= slack_3 0.0))
(assert (< (- (+ b (* w1 0.2) (* w2 0.0) (* w3 0.0) (* w4 0.0618556701030928) (* w5 0.0663265306122449) (* w6 0.333333333333333) (* w7 0.636666666666667) (* w8 0.0787671232876712) (* w9 0.0567010309278351) (* w10 0.0668380462724936) (* w11 0.0476190476190476)) slack_3) (- 0.001))) ; Constraint for sample 3 (Label: 0)
(declare-fun slack_4 () Real)
(assert (>= slack_4 0.0))
(assert (< (- (+ b (* w1 0.4) (* w2 0.0) (* w3 1.0) (* w4 0.484536082474227) (* w5 0.326530612244898) (* w6 0.888888888888889) (* w7 0.756666666666667) (* w8 0.284246575342466) (* w9 0.170103092783505) (* w10 0.416452442159383) (* w11 0.489795918367347)) slack_4) (- 0.001))) ; Constraint for sample 4 (Label: 0)
(declare-fun slack_5 () Real)
(assert (>= slack_5 0.0))
(assert (> (+ b (* w1 1.0) (* w2 0.0) (* w3 1.0) (* w4 0.288659793814433) (* w5 0.275510204081633) (* w6 0.555555555555556) (* w7 0.235) (* w8 0.294520547945205) (* w9 0.128865979381443) (* w10 0.179948586118252) (* w11 0.136054421768707) slack_5) 0.001)) ; Constraint for sample 5 (Label: 1)
(declare-fun slack_6 () Real)
(assert (>= slack_6 0.0))
(assert (< (- (+ b (* w1 0.8) (* w2 1.0) (* w3 0.0) (* w4 0.0103092783505155) (* w5 0.0178571428571429) (* w6 0.444444444444444) (* w7 0.865) (* w8 0.0273972602739726) (* w9 0.0154639175257732) (* w10 0.0154241645244216) (* w11 0.0136054421768708)) slack_6) (- 0.001))) ; Constraint for sample 6 (Label: 0)
(declare-fun slack_7 () Real)
(assert (>= slack_7 0.0))
(assert (< (- (+ b (* w1 0.2) (* w2 1.0) (* w3 1.0) (* w4 0.0103092783505155) (* w5 0.0076530612244898) (* w6 0.333333333333333) (* w7 0.86) (* w8 0.023972602739726) (* w9 0.0154639175257732) (* w10 0.0205655526992288) (* w11 0.0136054421768708)) slack_7) (- 0.001))) ; Constraint for sample 7 (Label: 0)
(declare-fun slack_8 () Real)
(assert (>= slack_8 0.0))
(assert (< (- (+ b (* w1 1.0) (* w2 0.0) (* w3 0.0) (* w4 0.876288659793814) (* w5 0.834183673469388) (* w6 0.111111111111111) (* w7 0.63) (* w8 0.773972602739726) (* w9 0.762886597938144) (* w10 0.74293059125964) (* w11 0.292517006802721)) slack_8) (- 0.001))) ; Constraint for sample 8 (Label: 0)
(declare-fun slack_9 () Real)
(assert (>= slack_9 0.0))
(assert (> (+ b (* w1 0.2) (* w2 1.0) (* w3 0.0) (* w4 0.938144329896907) (* w5 0.729591836734694) (* w6 0.222222222222222) (* w7 0.376666666666667) (* w8 0.383561643835616) (* w9 0.0824742268041237) (* w10 0.498714652956298) (* w11 0.748299319727891) slack_9) 0.001)) ; Constraint for sample 9 (Label: 1)
(declare-fun slack_10 () Real)
(assert (>= slack_10 0.0))
(assert (< (- (+ b (* w1 0.6) (* w2 0.0) (* w3 1.0) (* w4 0.958762886597938) (* w5 0.517857142857143) (* w6 0.0) (* w7 0.718333333333333) (* w8 0.462328767123288) (* w9 0.195876288659794) (* w10 0.524421593830334) (* w11 0.625850340136054)) slack_10) (- 0.001))) ; Constraint for sample 10 (Label: 0)
(declare-fun slack_11 () Real)
(assert (>= slack_11 0.0))
(assert (> (+ b (* w1 0.2) (* w2 1.0) (* w3 1.0) (* w4 0.77319587628866) (* w5 0.642857142857143) (* w6 0.555555555555556) (* w7 0.415) (* w8 0.623287671232877) (* w9 0.54639175257732) (* w10 0.519280205655527) (* w11 0.476190476190476) slack_11) 0.001)) ; Constraint for sample 11 (Label: 1)
(declare-fun slack_12 () Real)
(assert (>= slack_12 0.0))
(assert (< (- (+ b (* w1 1.0) (* w2 1.0) (* w3 0.0) (* w4 0.309278350515464) (* w5 0.247448979591837) (* w6 0.666666666666667) (* w7 0.516666666666667) (* w8 0.102739726027397) (* w9 0.195876288659794) (* w10 0.213367609254499) (* w11 0.238095238095238)) slack_12) (- 0.001))) ; Constraint for sample 12 (Label: 0)
(declare-fun slack_13 () Real)
(assert (>= slack_13 0.0))
(assert (< (- (+ b (* w1 1.0) (* w2 1.0) (* w3 0.0) (* w4 0.0412371134020619) (* w5 0.0433673469387755) (* w6 1.0) (* w7 0.851666666666667) (* w8 0.0136986301369863) (* w9 0.0206185567010309) (* w10 0.0411311053984576) (* w11 0.0408163265306122)) slack_13) (- 0.001))) ; Constraint for sample 13 (Label: 0)
(declare-fun slack_14 () Real)
(assert (>= slack_14 0.0))
(assert (> (+ b (* w1 0.0) (* w2 1.0) (* w3 0.0) (* w4 0.329896907216495) (* w5 0.267857142857143) (* w6 0.222222222222222) (* w7 0.231666666666667) (* w8 0.184931506849315) (* w9 0.0721649484536082) (* w10 0.290488431876607) (* w11 0.129251700680272) slack_14) 0.001)) ; Constraint for sample 14 (Label: 1)
(declare-fun slack_15 () Real)
(assert (>= slack_15 0.0))
(assert (< (- (+ b (* w1 0.0) (* w2 1.0) (* w3 1.0) (* w4 0.793814432989691) (* w5 0.604591836734694) (* w6 1.0) (* w7 0.713333333333333) (* w8 0.64041095890411) (* w9 0.804123711340206) (* w10 0.552699228791774) (* w11 0.503401360544218)) slack_15) (- 0.001))) ; Constraint for sample 15 (Label: 0)
(declare-fun slack_16 () Real)
(assert (>= slack_16 0.0))
(assert (> (+ b (* w1 0.6) (* w2 0.0) (* w3 0.0) (* w4 0.360824742268041) (* w5 0.221938775510204) (* w6 0.222222222222222) (* w7 0.305) (* w8 0.321917808219178) (* w9 0.0206185567010309) (* w10 0.246786632390745) (* w11 0.244897959183673) slack_16) 0.001)) ; Constraint for sample 16 (Label: 1)
(declare-fun slack_17 () Real)
(assert (>= slack_17 0.0))
(assert (< (- (+ b (* w1 0.6) (* w2 1.0) (* w3 1.0) (* w4 0.536082474226804) (* w5 0.357142857142857) (* w6 0.111111111111111) (* w7 0.491666666666667) (* w8 0.143835616438356) (* w9 0.144329896907216) (* w10 0.488431876606684) (* w11 0.333333333333333)) slack_17) (- 0.001))) ; Constraint for sample 17 (Label: 0)
(declare-fun slack_18 () Real)
(assert (>= slack_18 0.0))
(assert (< (- (+ b (* w1 0.0) (* w2 1.0) (* w3 1.0) (* w4 0.958762886597938) (* w5 0.808673469387755) (* w6 0.0) (* w7 0.333333333333333) (* w8 0.287671232876712) (* w9 0.5) (* w10 0.622107969151671) (* w11 0.380952380952381)) slack_18) (- 0.001))) ; Constraint for sample 18 (Label: 0)
(declare-fun slack_19 () Real)
(assert (>= slack_19 0.0))
(assert (< (- (+ b (* w1 0.4) (* w2 0.0) (* w3 1.0) (* w4 0.948453608247423) (* w5 0.75765306122449) (* w6 0.777777777777778) (* w7 0.441666666666667) (* w8 0.0445205479452055) (* w9 0.201030927835052) (* w10 0.717223650385604) (* w11 0.612244897959184)) slack_19) (- 0.001))) ; Constraint for sample 19 (Label: 0)
(declare-fun slack_20 () Real)
(assert (>= slack_20 0.0))
(assert (< (- (+ b (* w1 0.8) (* w2 1.0) (* w3 1.0) (* w4 0.309278350515464) (* w5 0.318877551020408) (* w6 0.333333333333333) (* w7 0.563333333333333) (* w8 0.150684931506849) (* w9 0.134020618556701) (* w10 0.197943444730077) (* w11 0.258503401360544)) slack_20) (- 0.001))) ; Constraint for sample 20 (Label: 0)
(declare-fun slack_21 () Real)
(assert (>= slack_21 0.0))
(assert (> (+ b (* w1 0.0) (* w2 1.0) (* w3 0.0) (* w4 0.701030927835051) (* w5 0.459183673469388) (* w6 0.222222222222222) (* w7 0.401666666666667) (* w8 0.219178082191781) (* w9 0.329896907216495) (* w10 0.526992287917738) (* w11 0.564625850340136) slack_21) 0.001)) ; Constraint for sample 21 (Label: 1)
(declare-fun slack_22 () Real)
(assert (>= slack_22 0.0))
(assert (> (+ b (* w1 1.0) (* w2 1.0) (* w3 0.0) (* w4 0.690721649484536) (* w5 0.482142857142857) (* w6 0.555555555555556) (* w7 0.18) (* w8 0.345890410958904) (* w9 0.257731958762887) (* w10 0.632390745501285) (* w11 0.612244897959184) slack_22) 0.001)) ; Constraint for sample 22 (Label: 1)
(declare-fun slack_23 () Real)
(assert (>= slack_23 0.0))
(assert (< (- (+ b (* w1 0.4) (* w2 1.0) (* w3 1.0) (* w4 0.876288659793814) (* w5 0.474489795918367) (* w6 0.0) (* w7 0.423333333333333) (* w8 0.136986301369863) (* w9 0.0979381443298969) (* w10 0.455012853470437) (* w11 0.782312925170068)) slack_23) (- 0.001))) ; Constraint for sample 23 (Label: 0)
(declare-fun slack_24 () Real)
(assert (>= slack_24 0.0))
(assert (< (- (+ b (* w1 0.0) (* w2 1.0) (* w3 0.0) (* w4 0.56701030927835) (* w5 0.535714285714286) (* w6 0.111111111111111) (* w7 0.661666666666667) (* w8 0.106164383561644) (* w9 0.350515463917526) (* w10 0.506426735218509) (* w11 0.374149659863946)) slack_24) (- 0.001))) ; Constraint for sample 24 (Label: 0)
(declare-fun slack_25 () Real)
(assert (>= slack_25 0.0))
(assert (< (- (+ b (* w1 0.0) (* w2 0.0) (* w3 1.0) (* w4 0.402061855670103) (* w5 0.275510204081633) (* w6 0.777777777777778) (* w7 0.808333333333333) (* w8 0.236301369863014) (* w9 0.27319587628866) (* w10 0.210796915167095) (* w11 0.326530612244898)) slack_25) (- 0.001))) ; Constraint for sample 25 (Label: 0)
(declare-fun slack_26 () Real)
(assert (>= slack_26 0.0))
(assert (< (- (+ b (* w1 0.6) (* w2 1.0) (* w3 0.0) (* w4 0.319587628865979) (* w5 0.326530612244898) (* w6 0.0) (* w7 0.423333333333333) (* w8 0.208904109589041) (* w9 0.128865979381443) (* w10 0.16452442159383) (* w11 0.258503401360544)) slack_26) (- 0.001))) ; Constraint for sample 26 (Label: 0)
(declare-fun slack_27 () Real)
(assert (>= slack_27 0.0))
(assert (< (- (+ b (* w1 1.0) (* w2 1.0) (* w3 0.0) (* w4 0.639175257731959) (* w5 0.459183673469388) (* w6 0.333333333333333) (* w7 0.661666666666667) (* w8 0.345890410958904) (* w9 0.185567010309278) (* w10 0.570694087403599) (* w11 0.244897959183673)) slack_27) (- 0.001))) ; Constraint for sample 27 (Label: 0)
(declare-fun slack_28 () Real)
(assert (>= slack_28 0.0))
(assert (< (- (+ b (* w1 0.8) (* w2 1.0) (* w3 0.0) (* w4 0.907216494845361) (* w5 0.732142857142857) (* w6 0.777777777777778) (* w7 0.483333333333333) (* w8 0.160958904109589) (* w9 0.804123711340206) (* w10 0.74293059125964) (* w11 0.836734693877551)) slack_28) (- 0.001))) ; Constraint for sample 28 (Label: 0)
(declare-fun slack_29 () Real)
(assert (>= slack_29 0.0))
(assert (> (+ b (* w1 0.6) (* w2 1.0) (* w3 1.0) (* w4 0.484536082474227) (* w5 0.316326530612245) (* w6 0.333333333333333) (* w7 0.181666666666667) (* w8 0.0719178082191781) (* w9 0.128865979381443) (* w10 0.488431876606684) (* w11 0.319727891156463) slack_29) 0.001)) ; Constraint for sample 29 (Label: 1)
(declare-fun slack_30 () Real)
(assert (>= slack_30 0.0))
(assert (> (+ b (* w1 1.0) (* w2 1.0) (* w3 1.0) (* w4 0.639175257731959) (* w5 0.510204081632653) (* w6 0.777777777777778) (* w7 0.0800000000000001) (* w8 0.345890410958904) (* w9 0.561855670103093) (* w10 0.516709511568124) (* w11 0.469387755102041) slack_30) 0.001)) ; Constraint for sample 30 (Label: 1)
(declare-fun slack_31 () Real)
(assert (>= slack_31 0.0))
(assert (< (- (+ b (* w1 0.6) (* w2 0.0) (* w3 0.0) (* w4 0.371134020618557) (* w5 0.293367346938775) (* w6 0.111111111111111) (* w7 0.656666666666667) (* w8 0.00342465753424658) (* w9 0.0257731958762887) (* w10 0.205655526992288) (* w11 0.346938775510204)) slack_31) (- 0.001))) ; Constraint for sample 31 (Label: 0)
(declare-fun slack_32 () Real)
(assert (>= slack_32 0.0))
(assert (< (- (+ b (* w1 0.6) (* w2 0.0) (* w3 1.0) (* w4 0.577319587628866) (* w5 0.441326530612245) (* w6 0.222222222222222) (* w7 0.7) (* w8 0.171232876712329) (* w9 0.216494845360825) (* w10 0.475578406169666) (* w11 0.448979591836735)) slack_32) (- 0.001))) ; Constraint for sample 32 (Label: 0)
(declare-fun slack_33 () Real)
(assert (>= slack_33 0.0))
(assert (< (- (+ b (* w1 0.6) (* w2 1.0) (* w3 1.0) (* w4 0.907216494845361) (* w5 0.795918367346939) (* w6 0.444444444444444) (* w7 0.916666666666667) (* w8 0.75) (* w9 0.639175257731959) (* w10 0.858611825192802) (* w11 0.54421768707483)) slack_33) (- 0.001))) ; Constraint for sample 33 (Label: 0)
(declare-fun slack_34 () Real)
(assert (>= slack_34 0.0))
(assert (< (- (+ b (* w1 0.8) (* w2 0.0) (* w3 1.0) (* w4 0.278350515463918) (* w5 0.142857142857143) (* w6 0.888888888888889) (* w7 0.535) (* w8 0.0102739726027397) (* w9 0.15979381443299) (* w10 0.210796915167095) (* w11 0.238095238095238)) slack_34) (- 0.001))) ; Constraint for sample 34 (Label: 0)
(declare-fun slack_35 () Real)
(assert (>= slack_35 0.0))
(assert (< (- (+ b (* w1 1.0) (* w2 1.0) (* w3 1.0) (* w4 0.412371134020619) (* w5 0.278061224489796) (* w6 0.0) (* w7 0.763333333333333) (* w8 0.184931506849315) (* w9 0.335051546391753) (* w10 0.239074550128535) (* w11 0.258503401360544)) slack_35) (- 0.001))) ; Constraint for sample 35 (Label: 0)
(declare-fun slack_36 () Real)
(assert (>= slack_36 0.0))
(assert (> (+ b (* w1 0.6) (* w2 0.0) (* w3 0.0) (* w4 0.463917525773196) (* w5 0.267857142857143) (* w6 0.333333333333333) (* w7 0.378333333333333) (* w8 0.458904109589041) (* w9 0.15979381443299) (* w10 0.341902313624679) (* w11 0.326530612244898) slack_36) 0.001)) ; Constraint for sample 36 (Label: 1)
(declare-fun slack_37 () Real)
(assert (>= slack_37 0.0))
(assert (< (- (+ b (* w1 0.4) (* w2 1.0) (* w3 1.0) (* w4 0.628865979381443) (* w5 0.454081632653061) (* w6 0.222222222222222) (* w7 0.618333333333333) (* w8 0.273972602739726) (* w9 0.422680412371134) (* w10 0.331619537275064) (* w11 0.36734693877551)) slack_37) (- 0.001))) ; Constraint for sample 37 (Label: 0)
(declare-fun slack_38 () Real)
(assert (>= slack_38 0.0))
(assert (< (- (+ b (* w1 0.8) (* w2 0.0) (* w3 1.0) (* w4 0.927835051546392) (* w5 0.466836734693878) (* w6 0.0) (* w7 0.981666666666667) (* w8 0.924657534246575) (* w9 0.216494845360825) (* w10 0.848329048843188) (* w11 0.659863945578231)) slack_38) (- 0.001))) ; Constraint for sample 38 (Label: 0)
(declare-fun slack_39 () Real)
(assert (>= slack_39 0.0))
(assert (< (- (+ b (* w1 0.4) (* w2 0.0) (* w3 0.0) (* w4 0.206185567010309) (* w5 0.114795918367347) (* w6 0.222222222222222) (* w7 0.701666666666667) (* w8 0.0650684931506849) (* w9 0.00515463917525773) (* w10 0.169665809768638) (* w11 0.149659863945578)) slack_39) (- 0.001))) ; Constraint for sample 39 (Label: 0)
(declare-fun slack_40 () Real)
(assert (>= slack_40 0.0))
(assert (< (- (+ b (* w1 0.2) (* w2 0.0) (* w3 0.0) (* w4 0.257731958762887) (* w5 0.198979591836735) (* w6 0.777777777777778) (* w7 0.651666666666667) (* w8 0.0719178082191781) (* w9 0.185567010309278) (* w10 0.200514138817481) (* w11 0.142857142857143)) slack_40) (- 0.001))) ; Constraint for sample 40 (Label: 0)
(declare-fun slack_41 () Real)
(assert (>= slack_41 0.0))
(assert (> (+ b (* w1 0.0) (* w2 1.0) (* w3 0.0) (* w4 0.371134020618557) (* w5 0.369897959183673) (* w6 0.444444444444444) (* w7 0.15) (* w8 0.205479452054794) (* w9 0.293814432989691) (* w10 0.236503856041131) (* w11 0.312925170068027) slack_41) 0.001)) ; Constraint for sample 41 (Label: 1)
(declare-fun slack_42 () Real)
(assert (>= slack_42 0.0))
(assert (< (- (+ b (* w1 0.0) (* w2 0.0) (* w3 0.0) (* w4 0.515463917525773) (* w5 0.303571428571429) (* w6 0.777777777777778) (* w7 0.805) (* w8 0.174657534246575) (* w9 0.103092783505155) (* w10 0.285347043701799) (* w11 0.346938775510204)) slack_42) (- 0.001))) ; Constraint for sample 42 (Label: 0)
(declare-fun slack_43 () Real)
(assert (>= slack_43 0.0))
(assert (< (- (+ b (* w1 0.6) (* w2 0.0) (* w3 0.0) (* w4 0.144329896907216) (* w5 0.0816326530612245) (* w6 0.444444444444444) (* w7 0.906666666666667) (* w8 0.157534246575342) (* w9 0.11340206185567) (* w10 0.125964010282776) (* w11 0.108843537414966)) slack_43) (- 0.001))) ; Constraint for sample 43 (Label: 0)
(declare-fun slack_44 () Real)
(assert (>= slack_44 0.0))
(assert (> (+ b (* w1 0.4) (* w2 0.0) (* w3 1.0) (* w4 0.257731958762887) (* w5 0.23469387755102) (* w6 0.444444444444444) (* w7 0.223333333333333) (* w8 0.0958904109589041) (* w9 0.077319587628866) (* w10 0.200514138817481) (* w11 0.122448979591837) slack_44) 0.001)) ; Constraint for sample 44 (Label: 1)
(declare-fun slack_45 () Real)
(assert (>= slack_45 0.0))
(assert (> (+ b (* w1 0.0) (* w2 1.0) (* w3 1.0) (* w4 0.278350515463918) (* w5 0.186224489795918) (* w6 0.333333333333333) (* w7 0.0333333333333333) (* w8 0.277397260273973) (* w9 0.288659793814433) (* w10 0.239074550128535) (* w11 0.210884353741497) slack_45) 0.001)) ; Constraint for sample 45 (Label: 1)
(declare-fun slack_46 () Real)
(assert (>= slack_46 0.0))
(assert (> (+ b (* w1 0.6) (* w2 1.0) (* w3 0.0) (* w4 0.0103092783505155) (* w5 0.00510204081632653) (* w6 0.0) (* w7 0.295) (* w8 0.0273972602739726) (* w9 0.0103092783505155) (* w10 0.012853470437018) (* w11 0.0272108843537415) slack_46) 0.001)) ; Constraint for sample 46 (Label: 1)
(declare-fun slack_47 () Real)
(assert (>= slack_47 0.0))
(assert (< (- (+ b (* w1 0.8) (* w2 0.0) (* w3 1.0) (* w4 0.865979381443299) (* w5 0.586734693877551) (* w6 0.555555555555556) (* w7 0.808333333333333) (* w8 0.647260273972603) (* w9 0.195876288659794) (* w10 0.596401028277635) (* w11 0.306122448979592)) slack_47) (- 0.001))) ; Constraint for sample 47 (Label: 0)
(declare-fun slack_48 () Real)
(assert (>= slack_48 0.0))
(assert (> (+ b (* w1 0.0) (* w2 0.0) (* w3 0.0) (* w4 0.381443298969072) (* w5 0.362244897959184) (* w6 0.333333333333333) (* w7 0.408333333333333) (* w8 0.205479452054794) (* w9 0.154639175257732) (* w10 0.25706940874036) (* w11 0.231292517006803) slack_48) 0.001)) ; Constraint for sample 48 (Label: 1)
(declare-fun slack_49 () Real)
(assert (>= slack_49 0.0))
(assert (> (+ b (* w1 0.8) (* w2 1.0) (* w3 1.0) (* w4 0.381443298969072) (* w5 0.308673469387755) (* w6 0.555555555555556) (* w7 0.288333333333333) (* w8 0.222602739726027) (* w9 0.242268041237113) (* w10 0.329048843187661) (* w11 0.258503401360544) slack_49) 0.001)) ; Constraint for sample 49 (Label: 1)
(declare-fun slack_50 () Real)
(assert (>= slack_50 0.0))
(assert (< (- (+ b (* w1 0.0) (* w2 0.0) (* w3 0.0) (* w4 0.948453608247423) (* w5 0.834183673469388) (* w6 0.111111111111111) (* w7 0.526666666666667) (* w8 0.530821917808219) (* w9 0.257731958762887) (* w10 0.637532133676093) (* w11 0.530612244897959)) slack_50) (- 0.001))) ; Constraint for sample 50 (Label: 0)
(declare-fun slack_51 () Real)
(assert (>= slack_51 0.0))
(assert (< (- (+ b (* w1 1.0) (* w2 1.0) (* w3 0.0) (* w4 0.309278350515464) (* w5 0.181122448979592) (* w6 0.0) (* w7 0.896666666666667) (* w8 0.0787671232876712) (* w9 0.149484536082474) (* w10 0.254498714652956) (* w11 0.244897959183673)) slack_51) (- 0.001))) ; Constraint for sample 51 (Label: 0)
(declare-fun slack_52 () Real)
(assert (>= slack_52 0.0))
(assert (< (- (+ b (* w1 0.6) (* w2 0.0) (* w3 0.0) (* w4 0.298969072164948) (* w5 0.272959183673469) (* w6 0.0) (* w7 0.405) (* w8 0.205479452054794) (* w9 0.11340206185567) (* w10 0.223650385604113) (* w11 0.163265306122449)) slack_52) (- 0.001))) ; Constraint for sample 52 (Label: 0)
(declare-fun slack_53 () Real)
(assert (>= slack_53 0.0))
(assert (< (- (+ b (* w1 0.0) (* w2 1.0) (* w3 0.0) (* w4 0.793814432989691) (* w5 0.660714285714286) (* w6 0.888888888888889) (* w7 0.908333333333333) (* w8 0.48972602739726) (* w9 0.757731958762887) (* w10 0.696658097686375) (* w11 0.428571428571429)) slack_53) (- 0.001))) ; Constraint for sample 53 (Label: 0)
(declare-fun slack_54 () Real)
(assert (>= slack_54 0.0))
(assert (< (- (+ b (* w1 0.2) (* w2 0.0) (* w3 0.0) (* w4 0.309278350515464) (* w5 0.186224489795918) (* w6 0.111111111111111) (* w7 0.486666666666667) (* w8 0.106164383561644) (* w9 0.0721649484536082) (* w10 0.200514138817481) (* w11 0.319727891156463)) slack_54) (- 0.001))) ; Constraint for sample 54 (Label: 0)
(declare-fun slack_55 () Real)
(assert (>= slack_55 0.0))
(assert (< (- (+ b (* w1 1.0) (* w2 1.0) (* w3 1.0) (* w4 0.515463917525773) (* w5 0.454081632653061) (* w6 0.333333333333333) (* w7 0.848333333333333) (* w8 0.0856164383561644) (* w9 0.355670103092783) (* w10 0.352185089974293) (* w11 0.374149659863946)) slack_55) (- 0.001))) ; Constraint for sample 55 (Label: 0)
(declare-fun slack_56 () Real)
(assert (>= slack_56 0.0))
(assert (< (- (+ b (* w1 0.0) (* w2 0.0) (* w3 1.0) (* w4 0.494845360824742) (* w5 0.5) (* w6 0.222222222222222) (* w7 0.746666666666667) (* w8 0.287671232876712) (* w9 0.438144329896907) (* w10 0.282776349614396) (* w11 0.204081632653061)) slack_56) (- 0.001))) ; Constraint for sample 56 (Label: 0)
(declare-fun slack_57 () Real)
(assert (>= slack_57 0.0))
(assert (< (- (+ b (* w1 0.4) (* w2 0.0) (* w3 0.0) (* w4 0.45360824742268) (* w5 0.438775510204082) (* w6 1.0) (* w7 0.495) (* w8 0.393835616438356) (* w9 0.314432989690722) (* w10 0.354755784061697) (* w11 0.27891156462585)) slack_57) (- 0.001))) ; Constraint for sample 57 (Label: 0)
(declare-fun slack_58 () Real)
(assert (>= slack_58 0.0))
(assert (< (- (+ b (* w1 0.2) (* w2 1.0) (* w3 0.0) (* w4 0.268041237113402) (* w5 0.165816326530612) (* w6 0.888888888888889) (* w7 0.493333333333333) (* w8 0.273972602739726) (* w9 0.0206185567010309) (* w10 0.179948586118252) (* w11 0.102040816326531)) slack_58) (- 0.001))) ; Constraint for sample 58 (Label: 0)
(declare-fun slack_59 () Real)
(assert (>= slack_59 0.0))
(assert (< (- (+ b (* w1 0.0) (* w2 0.0) (* w3 0.0) (* w4 0.298969072164948) (* w5 0.229591836734694) (* w6 0.222222222222222) (* w7 0.605) (* w8 0.0479452054794521) (* w9 0.0721649484536082) (* w10 0.200514138817481) (* w11 0.258503401360544)) slack_59) (- 0.001))) ; Constraint for sample 59 (Label: 0)
(declare-fun slack_60 () Real)
(assert (>= slack_60 0.0))
(assert (< (- (+ b (* w1 0.8) (* w2 1.0) (* w3 1.0) (* w4 0.216494845360825) (* w5 0.188775510204082) (* w6 0.777777777777778) (* w7 0.481666666666667) (* w8 0.208904109589041) (* w9 0.22680412371134) (* w10 0.154241645244216) (* w11 0.156462585034014)) slack_60) (- 0.001))) ; Constraint for sample 60 (Label: 0)
(declare-fun slack_61 () Real)
(assert (>= slack_61 0.0))
(assert (> (+ b (* w1 0.8) (* w2 0.0) (* w3 0.0) (* w4 0.34020618556701) (* w5 0.219387755102041) (* w6 0.111111111111111) (* w7 0.283333333333333) (* w8 0.0479452054794521) (* w9 0.11340206185567) (* w10 0.308483290488432) (* w11 0.136054421768707) slack_61) 0.001)) ; Constraint for sample 61 (Label: 1)
(declare-fun slack_62 () Real)
(assert (>= slack_62 0.0))
(assert (> (+ b (* w1 0.4) (* w2 1.0) (* w3 0.0) (* w4 0.804123711340206) (* w5 0.502551020408163) (* w6 0.0) (* w7 0.336666666666667) (* w8 0.143835616438356) (* w9 0.11340206185567) (* w10 0.804627249357326) (* w11 0.673469387755102) slack_62) 0.001)) ; Constraint for sample 62 (Label: 1)
(declare-fun slack_63 () Real)
(assert (>= slack_63 0.0))
(assert (> (+ b (* w1 0.2) (* w2 1.0) (* w3 1.0) (* w4 0.0103092783505155) (* w5 0.0178571428571429) (* w6 0.444444444444444) (* w7 0.218333333333333) (* w8 0.0171232876712329) (* w9 0.0257731958762887) (* w10 0.0154241645244216) (* w11 0.00680272108843537) slack_63) 0.001)) ; Constraint for sample 63 (Label: 1)
(declare-fun slack_64 () Real)
(assert (>= slack_64 0.0))
(assert (< (- (+ b (* w1 0.2) (* w2 1.0) (* w3 0.0) (* w4 0.0309278350515464) (* w5 0.0357142857142857) (* w6 0.0) (* w7 0.633333333333333) (* w8 0.0273972602739726) (* w9 0.0412371134020619) (* w10 0.0282776349614396) (* w11 0.0476190476190476)) slack_64) (- 0.001))) ; Constraint for sample 64 (Label: 0)
(declare-fun slack_65 () Real)
(assert (>= slack_65 0.0))
(assert (> (+ b (* w1 0.4) (* w2 1.0) (* w3 1.0) (* w4 0.154639175257732) (* w5 0.122448979591837) (* w6 0.888888888888889) (* w7 0.035) (* w8 0.0719178082191781) (* w9 0.144329896907216) (* w10 0.123393316195373) (* w11 0.102040816326531) slack_65) 0.001)) ; Constraint for sample 65 (Label: 1)
(declare-fun slack_66 () Real)
(assert (>= slack_66 0.0))
(assert (> (+ b (* w1 0.8) (* w2 0.0) (* w3 0.0) (* w4 0.34020618556701) (* w5 0.288265306122449) (* w6 0.444444444444444) (* w7 0.0583333333333334) (* w8 0.219178082191781) (* w9 0.268041237113402) (* w10 0.25706940874036) (* w11 0.156462585034014) slack_66) 0.001)) ; Constraint for sample 66 (Label: 1)
(declare-fun slack_67 () Real)
(assert (>= slack_67 0.0))
(assert (< (- (+ b (* w1 0.2) (* w2 0.0) (* w3 0.0) (* w4 0.164948453608247) (* w5 0.142857142857143) (* w6 0.777777777777778) (* w7 0.84) (* w8 0.0308219178082192) (* w9 0.128865979381443) (* w10 0.120822622107969) (* w11 0.0680272108843537)) slack_67) (- 0.001))) ; Constraint for sample 67 (Label: 0)
(declare-fun slack_68 () Real)
(assert (>= slack_68 0.0))
(assert (> (+ b (* w1 1.0) (* w2 0.0) (* w3 1.0) (* w4 0.525773195876289) (* w5 0.456632653061224) (* w6 0.777777777777778) (* w7 0.41) (* w8 0.503424657534247) (* w9 0.407216494845361) (* w10 0.336760925449871) (* w11 0.272108843537415) slack_68) 0.001)) ; Constraint for sample 68 (Label: 1)
(declare-fun slack_69 () Real)
(assert (>= slack_69 0.0))
(assert (< (- (+ b (* w1 0.8) (* w2 1.0) (* w3 0.0) (* w4 0.742268041237113) (* w5 0.459183673469388) (* w6 0.444444444444444) (* w7 0.501666666666667) (* w8 0.565068493150685) (* w9 0.649484536082474) (* w10 0.732647814910026) (* w11 0.414965986394558)) slack_69) (- 0.001))) ; Constraint for sample 69 (Label: 0)
(declare-fun slack_70 () Real)
(assert (>= slack_70 0.0))
(assert (> (+ b (* w1 0.6) (* w2 1.0) (* w3 1.0) (* w4 0.164948453608247) (* w5 0.155612244897959) (* w6 1.0) (* w7 0.226666666666667) (* w8 0.0547945205479452) (* w9 0.149484536082474) (* w10 0.105398457583548) (* w11 0.0884353741496599) slack_70) 0.001)) ; Constraint for sample 70 (Label: 1)
(declare-fun slack_71 () Real)
(assert (>= slack_71 0.0))
(assert (< (- (+ b (* w1 1.0) (* w2 0.0) (* w3 1.0) (* w4 0.721649484536082) (* w5 0.535714285714286) (* w6 0.0) (* w7 0.835) (* w8 0.342465753424657) (* w9 0.0876288659793814) (* w10 0.516709511568124) (* w11 0.489795918367347)) slack_71) (- 0.001))) ; Constraint for sample 71 (Label: 0)
(declare-fun slack_72 () Real)
(assert (>= slack_72 0.0))
(assert (< (- (+ b (* w1 0.4) (* w2 0.0) (* w3 0.0) (* w4 0.443298969072165) (* w5 0.224489795918367) (* w6 0.888888888888889) (* w7 0.488333333333333) (* w8 0.0) (* w9 0.0309278350515464) (* w10 0.311053984575835) (* w11 0.170068027210884)) slack_72) (- 0.001))) ; Constraint for sample 72 (Label: 0)
(declare-fun total_slack () Real)
(assert (= total_slack (+ slack_1 slack_2 slack_3 slack_4 slack_5 slack_6 slack_7 slack_8 slack_9 slack_10 slack_11 slack_12 slack_13 slack_14 slack_15 slack_16 slack_17 slack_18 slack_19 slack_20 slack_21 slack_22 slack_23 slack_24 slack_25 slack_26 slack_27 slack_28 slack_29 slack_30 slack_31 slack_32 slack_33 slack_34 slack_35 slack_36 slack_37 slack_38 slack_39 slack_40 slack_41 slack_42 slack_43 slack_44 slack_45 slack_46 slack_47 slack_48 slack_49 slack_50 slack_51 slack_52 slack_53 slack_54 slack_55 slack_56 slack_57 slack_58 slack_59 slack_60 slack_61 slack_62 slack_63 slack_64 slack_65 slack_66 slack_67 slack_68 slack_69 slack_70 slack_71 slack_72)))
(minimize total_slack)
(check-sat)
(get-model)